30	100	100	100
71	95	9
91	95	24
90	86	14
66	80	15
73	86	48
99	93	13
77	90	33
91	94	1
86	93	34
72	89	31
73	74	47
99	77	13
73	89	45
90	69	7
81	79	20
66	77	35
87	81	33
67	86	14
71	88	31
85	82	29
98	99	14
95	95	39
94	78	30
72	73	22
67	85	24
96	74	8
88	71	17
66	89	1
67	75	46
80	84	47
